NAME : gr96.tsp
COMMENT : Optimal tour for gr96.tsp
TYPE : TOUR
DIMENSION : 96
Total Length: 566.7585686564803
TOUR_SECTION
1
30
31
32
36
37
38
35
29
2
3
4
5
6
8
7
9
10
12
13
14
15
16
17
20
18
19
21
22
26
28
27
65
96
94
95
93
92
78
77
76
75
73
72
71
59
61
68
67
66
64
63
62
60
24
23
25
48
47
46
11
33
45
44
34
39
40
41
42
43
49
50
52
51
55
53
54
58
56
57
69
70
74
84
85
86
88
89
90
87
91
83
82
81
79
80
-1
EOF
